%%MatrixMarket matrix coordinate integer general
%
12 72 166
1 25 1
1 26 1
1 27 1
1 30 1
1 32 1
1 33 1
1 34 1
1 35 1
1 45 1
1 46 1
1 47 1
1 48 1
1 51 1
1 53 1
1 55 1
1 57 1
2 26 1
2 30 1
2 33 1
2 34 1
2 35 1
2 36 1
2 45 1
2 47 1
2 49 1
2 51 1
2 56 1
2 58 1
3 26 1
3 30 1
3 31 1
3 32 1
3 33 1
3 36 1
3 45 1
3 47 1
3 50 1
3 51 1
3 52 1
3 53 1
3 55 1
3 59 1
4 25 1
4 27 1
4 31 1
4 32 1
4 33 1
4 34 1
4 46 1
4 48 1
4 51 1
4 52 1
4 53 1
4 54 1
4 56 1
4 60 1
5 26 1
5 27 1
5 29 1
5 30 1
5 41 1
5 45 1
5 47 1
5 48 1
5 51 1
5 54 1
5 56 1
5 62 1
6 25 1
6 26 1
6 27 1
6 30 1
6 32 1
6 33 1
6 34 1
6 35 1
6 42 1
6 46 1
6 47 1
6 48 1
6 53 1
6 54 1
6 55 1
6 63 1
7 26 1
7 30 1
7 33 1
7 34 1
7 35 1
7 36 1
7 45 1
7 46 1
7 47 1
7 51 1
7 55 1
7 56 1
7 61 1
7 67 1
8 27 1
8 29 1
8 31 1
8 32 1
8 33 1
8 36 1
8 41 1
8 47 1
8 48 1
8 52 1
8 53 1
8 54 1
8 55 1
8 68 1
9 25 1
9 27 1
9 31 1
9 32 1
9 33 1
9 34 1
9 42 1
9 45 1
9 46 1
9 51 1
9 52 1
9 53 1
9 56 1
9 69 1
10 25 1
10 26 1
10 27 1
10 28 1
10 33 1
10 34 1
10 35 1
10 36 1
10 46 1
10 47 1
10 48 1
10 54 1
10 55 1
10 56 1
10 64 1
10 70 1
11 27 1
11 29 1
11 31 1
11 32 1
11 33 1
11 36 1
11 48 1
11 52 1
11 53 1
11 54 1
11 55 1
11 56 1
11 65 1
11 71 1
12 26 1
12 30 1
12 31 1
12 35 1
12 47 1
12 52 1
12 55 1
12 56 1
12 66 1
12 72 1
