%%MatrixMarket matrix coordinate integer general
%
36 72 216
1 4 1
1 7 1
1 13 1
1 38 1
1 39 1
1 55 1
2 5 1
2 8 1
2 14 1
2 39 1
2 40 1
2 56 1
3 6 1
3 9 1
3 15 1
3 40 1
3 41 1
3 57 1
4 1 1
4 10 1
4 16 1
4 41 1
4 42 1
4 58 1
5 2 1
5 11 1
5 17 1
5 37 1
5 42 1
5 59 1
6 3 1
6 12 1
6 18 1
6 37 1
6 38 1
6 60 1
7 10 1
7 13 1
7 19 1
7 44 1
7 45 1
7 61 1
8 11 1
8 14 1
8 20 1
8 45 1
8 46 1
8 62 1
9 12 1
9 15 1
9 21 1
9 46 1
9 47 1
9 63 1
10 7 1
10 16 1
10 22 1
10 47 1
10 48 1
10 64 1
11 8 1
11 17 1
11 23 1
11 43 1
11 48 1
11 65 1
12 9 1
12 18 1
12 24 1
12 43 1
12 44 1
12 66 1
13 16 1
13 19 1
13 25 1
13 50 1
13 51 1
13 67 1
14 17 1
14 20 1
14 26 1
14 51 1
14 52 1
14 68 1
15 18 1
15 21 1
15 27 1
15 52 1
15 53 1
15 69 1
16 13 1
16 22 1
16 28 1
16 53 1
16 54 1
16 70 1
17 14 1
17 23 1
17 29 1
17 49 1
17 54 1
17 71 1
18 15 1
18 24 1
18 30 1
18 49 1
18 50 1
18 72 1
19 22 1
19 25 1
19 31 1
19 37 1
19 56 1
19 57 1
20 23 1
20 26 1
20 32 1
20 38 1
20 57 1
20 58 1
21 24 1
21 27 1
21 33 1
21 39 1
21 58 1
21 59 1
22 19 1
22 28 1
22 34 1
22 40 1
22 59 1
22 60 1
23 20 1
23 29 1
23 35 1
23 41 1
23 55 1
23 60 1
24 21 1
24 30 1
24 36 1
24 42 1
24 55 1
24 56 1
25 1 1
25 28 1
25 31 1
25 43 1
25 62 1
25 63 1
26 2 1
26 29 1
26 32 1
26 44 1
26 63 1
26 64 1
27 3 1
27 30 1
27 33 1
27 45 1
27 64 1
27 65 1
28 4 1
28 25 1
28 34 1
28 46 1
28 65 1
28 66 1
29 5 1
29 26 1
29 35 1
29 47 1
29 61 1
29 66 1
30 6 1
30 27 1
30 36 1
30 48 1
30 61 1
30 62 1
31 1 1
31 7 1
31 34 1
31 49 1
31 68 1
31 69 1
32 2 1
32 8 1
32 35 1
32 50 1
32 69 1
32 70 1
33 3 1
33 9 1
33 36 1
33 51 1
33 70 1
33 71 1
34 4 1
34 10 1
34 31 1
34 52 1
34 71 1
34 72 1
35 5 1
35 11 1
35 32 1
35 53 1
35 67 1
35 72 1
36 6 1
36 12 1
36 33 1
36 54 1
36 67 1
36 68 1
